Cost: 1351
0-34-1-2-13-5-6-4-7-32-8-36-9-11-38-10-51-14-12-15-16-17-55-33-0
0-31-46-0
0-29-52-26-25-24-18-20-40-41-21-22-50-23-54-27-49-44-28-45-30-0
Cost: 1351
0-31-46-0
0-34-1-2-13-5-6-4-7-32-8-36-9-11-38-10-51-14-12-15-16-17-55-33-0
0-29-52-26-25-24-18-20-40-41-21-22-50-23-54-27-49-44-28-45-30-0
Cost: 1351
0-34-1-2-13-5-6-4-7-32-8-36-9-11-38-10-51-14-12-15-16-17-55-33-0
0-31-46-0
0-29-52-26-25-24-18-20-40-41-21-22-50-23-54-27-49-44-28-45-30-0
Cost: 1351
0-34-1-2-13-5-6-4-7-32-8-36-9-11-38-10-51-14-12-15-16-17-55-33-0
0-31-46-0
0-29-52-26-25-24-18-20-40-41-21-22-50-23-54-27-49-44-28-45-30-0
Cost: 1351
0-31-46-0
0-34-1-2-13-5-6-4-7-32-8-36-9-11-38-10-51-14-12-15-16-17-55-33-0
0-29-52-26-25-24-18-20-40-41-21-22-50-23-54-27-49-44-28-45-30-0
Cost: 1351
0-31-0
0-46-29-26-52-25-24-18-20-40-41-21-22-50-23-54-27-49-43-28-45-30-0
0-34-1-2-13-5-6-4-7-32-8-36-9-11-38-10-51-14-12-15-16-17-55-33-0
Cost: 1351
0-46-29-26-52-25-24-19-20-40-41-22-21-50-23-54-27-49-43-44-28-30-0
0-34-1-2-13-5-6-4-7-32-8-36-9-11-38-10-51-14-12-15-16-17-55-33-0
0-31-0
Cost: 1351
0-46-29-52-26-25-24-18-19-20-40-41-22-50-23-54-27-49-43-44-28-30-0
0-31-0
0-34-1-2-13-5-6-4-7-32-8-36-9-11-38-10-51-14-12-15-16-17-55-33-0
Cost: 1351
0-46-29-52-26-25-24-18-19-20-40-41-22-50-23-54-27-49-43-44-28-30-0
0-31-0
0-34-1-2-13-5-6-4-7-32-8-36-9-11-38-10-51-14-12-15-16-17-55-33-0
Cost: 1351
0-46-29-52-26-25-24-18-19-20-40-41-22-50-23-54-27-49-43-44-28-30-0
0-31-0
0-34-1-2-13-5-6-4-7-32-8-36-9-11-38-10-51-14-12-15-16-17-55-33-0
Cost: 1351
0-34-1-2-13-4-5-6-7-32-8-36-9-11-38-10-51-14-12-15-16-17-55-33-0
0-29-52-26-25-24-18-20-40-41-21-22-50-23-54-27-49-44-28-45-30-46-0
0-31-0
Cost: 1351
0-34-1-2-13-5-6-4-7-32-8-36-9-11-38-10-51-14-12-15-16-17-55-33-0
0-31-46-0
0-29-52-26-25-24-19-20-40-22-41-21-50-23-54-27-49-44-28-45-30-0
Cost: 1351
0-34-1-2-13-5-6-4-7-32-8-36-9-11-38-10-51-14-12-15-16-17-55-33-0
0-31-46-0
0-29-52-26-25-24-19-20-40-22-41-21-50-23-54-27-49-44-28-45-30-0
Cost: 1351
0-34-1-2-13-5-6-4-7-32-8-36-9-11-38-10-51-14-12-15-16-17-55-33-0
0-31-46-0
0-29-52-26-25-24-19-20-40-22-41-21-50-23-54-27-49-44-28-45-30-0
Cost: 1351
0-31-46-0
0-29-52-26-25-24-19-20-40-22-41-21-50-23-54-27-49-44-28-45-30-0
0-34-1-2-13-5-6-4-7-32-8-36-9-11-38-10-51-14-12-15-16-17-55-33-0
Cost: 1351
0-34-1-2-13-5-6-4-7-32-8-36-9-11-38-10-51-14-12-15-16-17-55-33-0
0-31-46-0
0-29-52-26-25-24-19-20-40-22-41-21-50-23-54-27-49-44-28-45-30-0
Cost: 1351
0-34-1-2-13-5-6-4-7-32-8-36-9-11-38-10-51-14-12-15-16-17-55-33-0
0-31-46-0
0-29-52-26-25-24-19-20-40-22-41-21-50-23-54-27-49-44-28-45-30-0
Cost: 1351
0-34-1-2-13-5-6-4-7-32-8-36-9-11-38-10-51-14-12-15-16-17-55-33-0
0-29-52-26-25-24-18-20-40-41-21-22-50-23-54-27-49-43-28-45-30-46-0
0-31-0
Cost: 1351
0-34-1-2-13-5-6-4-7-32-8-36-9-11-38-10-51-14-12-15-16-17-55-33-0
0-31-46-0
0-29-52-26-25-24-19-20-40-22-41-21-50-23-54-27-49-44-28-45-30-0
Cost: 1351
0-34-1-2-13-5-6-4-7-32-8-36-9-11-38-10-51-14-12-15-16-17-55-33-0
0-31-46-0
0-29-52-26-25-24-19-20-40-22-41-21-50-23-54-27-49-44-28-45-30-0
Cost: 1351
0-46-29-52-26-25-24-18-20-40-41-21-22-50-23-54-27-49-44-28-45-30-0
0-34-1-2-13-4-5-6-7-32-8-36-9-11-38-10-51-14-12-15-16-17-55-33-0
0-31-0
Cost: 1351
0-46-29-52-26-25-24-18-20-40-41-22-21-50-23-54-27-49-44-28-45-30-0
0-31-0
0-34-1-2-13-4-5-6-7-32-8-36-9-11-38-10-51-14-12-15-16-17-55-33-0
Cost: 1351
0-46-29-52-26-25-24-18-20-40-41-22-21-50-23-54-27-49-44-28-45-30-0
0-31-0
0-34-1-2-13-4-5-6-7-32-8-36-9-11-38-10-51-14-12-15-16-17-55-33-0
Cost: 1351
0-31-46-0
0-29-52-26-25-24-18-20-40-22-41-21-50-23-54-27-49-43-44-28-30-0
0-34-1-2-13-5-6-4-7-32-8-36-9-11-38-10-51-14-12-15-16-17-55-33-0
Cost: 1351
0-31-46-0
0-29-52-26-25-24-18-20-40-22-41-21-50-23-54-27-49-43-44-28-30-0
0-34-1-2-13-5-6-4-7-32-8-36-9-11-38-10-51-14-12-15-16-17-55-33-0
Cost: 1351
0-31-0
0-34-1-2-13-5-6-4-7-32-8-36-9-11-38-10-51-14-12-15-16-17-55-33-0
0-29-52-26-25-24-19-20-40-21-22-41-50-23-54-27-49-43-44-28-30-46-0
Cost: 1351
0-31-46-0
0-29-52-26-25-24-18-20-40-22-41-21-50-23-54-27-49-43-44-28-30-0
0-34-1-2-13-5-6-4-7-32-8-36-9-11-38-10-51-14-12-15-16-17-55-33-0
Cost: 1351
0-46-29-52-26-25-24-18-20-40-41-21-22-50-23-54-27-49-44-28-45-30-0
0-34-1-2-13-4-5-6-7-32-8-36-9-11-38-10-51-14-12-15-16-17-55-33-0
0-31-0
Cost: 1351
0-46-29-52-26-25-24-18-20-40-41-22-21-50-23-54-27-49-44-28-45-30-0
0-31-0
0-34-1-2-13-4-5-6-7-32-8-36-9-11-38-10-51-14-12-15-16-17-55-33-0
Cost: 1351
0-46-29-52-26-25-24-18-20-40-41-22-21-50-23-54-27-49-44-28-45-30-0
0-31-0
0-34-1-2-13-4-5-6-7-32-8-36-9-11-38-10-51-14-12-15-16-17-55-33-0
Cost: 1351
0-31-0
0-46-29-52-26-25-24-18-20-40-41-22-21-50-23-54-27-49-44-28-45-30-0
0-34-1-2-13-5-6-4-7-32-8-36-9-11-38-10-51-14-12-15-16-17-55-33-0
Cost: 1351
0-31-0
0-34-1-2-13-4-5-6-7-32-8-36-9-11-38-10-51-14-12-15-16-17-55-33-0
0-46-29-26-52-25-24-18-19-40-41-22-21-50-23-54-27-49-43-44-28-30-0
Cost: 1351
0-31-0
0-34-1-2-13-4-5-6-7-32-8-36-9-11-38-10-51-14-12-15-16-17-55-33-0
0-46-29-26-52-25-24-18-19-40-41-22-21-50-23-54-27-49-43-44-28-30-0
Cost: 1351
0-34-1-2-13-4-5-6-7-32-8-36-9-11-38-10-51-14-12-15-16-17-55-33-0
0-29-26-52-25-24-18-19-20-40-41-22-50-23-54-27-49-43-44-28-30-46-0
0-31-0
Cost: 1351
0-29-26-52-25-24-18-20-40-41-22-21-50-23-54-27-49-43-28-45-30-46-0
0-34-1-2-13-5-6-4-7-32-8-36-9-11-38-10-51-14-12-15-16-17-55-33-0
0-31-0
